c description: tiling of 
c generator: CNFgen (0.9.0)
c copyright: (C) 2012-2020 Massimo Lauria <massimo.lauria@uniroma1.it>
c url: https://massimolauria.net/cnfgen
c
p cnf 20 243
-1 -2 0
-1 -8 0
-1 -9 0
-1 -16 0
-1 -17 0
-1 -19 0
-2 -8 0
-2 -9 0
-2 -16 0
-2 -17 0
-2 -19 0
-8 -9 0
-8 -16 0
-8 -17 0
-8 -19 0
-9 -16 0
-9 -17 0
-9 -19 0
-16 -17 0
-16 -19 0
-17 -19 0
1 2 8 9 16 17 19 0
-1 -6 0
-1 -12 0
-1 -17 0
-1 -18 0
-1 -20 0
-6 -12 0
-6 -17 0
-6 -18 0
-6 -20 0
-12 -17 0
-12 -18 0
-12 -20 0
-17 -18 0
-17 -20 0
-18 -20 0
1 6 12 17 18 20 0
-1 -8 0
-1 -20 0
-8 -20 0
1 8 20 0
-2 -3 0
-2 -5 0
-2 -14 0
-2 -16 0
-2 -17 0
-3 -5 0
-3 -14 0
-3 -16 0
-3 -17 0
-5 -14 0
-5 -16 0
-5 -17 0
-14 -16 0
-14 -17 0
-16 -17 0
2 3 5 14 16 17 0
-2 -3 0
-2 -8 0
-2 -11 0
-2 -14 0
-2 -18 0
-2 -19 0
-3 -8 0
-3 -11 0
-3 -14 0
-3 -18 0
-3 -19 0
-8 -11 0
-8 -14 0
-8 -18 0
-8 -19 0
-11 -14 0
-11 -18 0
-11 -19 0
-14 -18 0
-14 -19 0
-18 -19 0
2 3 8 11 14 18 19 0
-2 -3 0
-2 -13 0
-2 -14 0
-2 -16 0
-3 -13 0
-3 -14 0
-3 -16 0
-13 -14 0
-13 -16 0
-14 -16 0
2 3 13 14 16 0
-2 -6 0
-2 -11 0
-2 -13 0
-6 -11 0
-6 -13 0
-11 -13 0
2 6 11 13 0
-2 -8 0
-2 -10 0
-2 -19 0
-8 -10 0
-8 -19 0
-10 -19 0
2 8 10 19 0
-2 -15 0
-2 -16 0
-2 -18 0
-2 -20 0
-15 -16 0
-15 -18 0
-15 -20 0
-16 -18 0
-16 -20 0
-18 -20 0
2 15 16 18 20 0
-3 -7 0
-3 -8 0
-3 -13 0
-3 -14 0
-3 -16 0
-3 -17 0
-3 -18 0
-7 -8 0
-7 -13 0
-7 -14 0
-7 -16 0
-7 -17 0
-7 -18 0
-8 -13 0
-8 -14 0
-8 -16 0
-8 -17 0
-8 -18 0
-13 -14 0
-13 -16 0
-13 -17 0
-13 -18 0
-14 -16 0
-14 -17 0
-14 -18 0
-16 -17 0
-16 -18 0
-17 -18 0
3 7 8 13 14 16 17 18 0
-3 -9 0
-3 -11 0
-3 -13 0
-3 -16 0
-3 -17 0
-9 -11 0
-9 -13 0
-9 -16 0
-9 -17 0
-11 -13 0
-11 -16 0
-11 -17 0
-13 -16 0
-13 -17 0
-16 -17 0
3 9 11 13 16 17 0
-4 -6 0
-4 -10 0
-4 -19 0
-6 -10 0
-6 -19 0
-10 -19 0
4 6 10 19 0
-4 -9 0
-4 -15 0
-4 -18 0
-9 -15 0
-9 -18 0
-15 -18 0
4 9 15 18 0
-4 -10 0
-4 -15 0
-10 -15 0
4 10 15 0
-5 -6 0
-5 -12 0
-5 -20 0
-6 -12 0
-6 -20 0
-12 -20 0
5 6 12 20 0
-5 -12 0
-5 -14 0
-12 -14 0
5 12 14 0
-6 -10 0
-6 -11 0
-6 -12 0
-6 -20 0
-10 -11 0
-10 -12 0
-10 -20 0
-11 -12 0
-11 -20 0
-12 -20 0
6 10 11 12 20 0
-7 -8 0
-7 -9 0
-7 -13 0
-7 -15 0
-7 -17 0
-8 -9 0
-8 -13 0
-8 -15 0
-8 -17 0
-9 -13 0
-9 -15 0
-9 -17 0
-13 -15 0
-13 -17 0
-15 -17 0
7 8 9 13 15 17 0
-7 -9 0
-7 -16 0
-9 -16 0
7 9 16 0
-8 -9 0
-8 -13 0
-8 -14 0
-8 -16 0
-8 -17 0
-8 -20 0
-9 -13 0
-9 -14 0
-9 -16 0
-9 -17 0
-9 -20 0
-13 -14 0
-13 -16 0
-13 -17 0
-13 -20 0
-14 -16 0
-14 -17 0
-14 -20 0
-16 -17 0
-16 -20 0
-17 -20 0
8 9 13 14 16 17 20 0